GLPSOL--GLPK LP/MIP Solver 5.0
Parameter(s) specified in the command line:
 --lp ../modeles/3_444.lp --log 3_444.log
Reading problem data from '../modeles/3_444.lp'...
1345 rows, 2670 columns, 9333 non-zeros
1332 integer variables, all of which are binary
4024 lines were read
GLPK Integer Optimizer 5.0
1345 rows, 2670 columns, 9333 non-zeros
1332 integer variables, all of which are binary
Preprocessing...
1314 constraint coefficient(s) were reduced
1345 rows, 2667 columns, 9330 non-zeros
1332 integer variables, all of which are binary
Scaling...
 A: min|aij| =  8.116e-05  max|aij| =  4.000e+00  ratio =  4.928e+04
GM: min|aij| =  6.712e-02  max|aij| =  1.490e+01  ratio =  2.220e+02
EQ: min|aij| =  4.505e-03  max|aij| =  1.000e+00  ratio =  2.220e+02
2N: min|aij| =  3.906e-03  max|aij| =  1.705e+00  ratio =  4.366e+02
Constructing initial basis...
Size of triangular part is 1345
Solving LP relaxation...
GLPK Simplex Optimizer 5.0
1345 rows, 2667 columns, 9330 non-zeros
      0: obj =   6.000000000e+00 inf =   1.645e+02 (7)
     92: obj =   4.625569433e-01 inf =   0.000e+00 (0)
*   269: obj =  -1.732034360e+00 inf =   2.894e-14 (0)
OPTIMAL LP SOLUTION FOUND
Integer optimization begins...
Long-step dual simplex will be used
+   269: mip =     not found yet >=              -inf        (1; 0)
+   279: >>>>>  -1.732034360e+00 >=  -1.732034360e+00 < 0.1% (7; 0)
+   279: mip =  -1.732034360e+00 >=     tree is empty   0.0% (0; 13)
INTEGER OPTIMAL SOLUTION FOUND
Time used:   0.0 secs
Memory used: 3.9 Mb (4074397 bytes)
